width,height
25,10
10,9
3,5
5,2
7,10
3,2
4,10
4,9
5,9
10,8
5,7
6,6
2,7
6,9
3,3
5,1
4,7
10,4
6,1
10,5
7,7
7,6
10,5
10,7
2,3
6,2
1,10
2,8
10,10
9,9
1,5
3,10
2,3
1,9
6,2
3,6
6,9
7,8
9,9
6,10
2,5
5,1
9,4
7,10
8,4
7,6
6,3
2,2
6,10
5,6
7,3
2,2
3,5
5,1
1,3
5,10
8,2
5,8
3,10
5,7
1,4
6,2
2,4
10,3
10,1
2,7
5,6
10,10
4,3
3,10
10,2
4,3
10,4
8,8
4,1
4,8
3,8
9,8
3,7
10,7
10,8
8,3
2,2
1,1
4,8
7,7
6,7
10,8
10,10
2,7
9,2
8,1
3,10
4,1
2,1
1,3
1,1
3,4
3,4
9,8
5,1
